<?xml version = "1.0" encoding="UTF-8" standalone="yes"?>
<CPLEXSolution version="1.2">
 <header
   problemName="ilog.cplex"
   solutionName="incumbent"
   solutionIndex="-1"
   objectiveValue="46"
   solutionTypeValue="3"
   solutionTypeString="primal"
   solutionStatusValue="107"
   solutionStatusString="time limit exceeded"
   solutionMethodString="mip"
   primalFeasible="1"
   dualFeasible="0"
   MIPNodes="1555487"
   MIPIterations="15609926"
   writeLevel="3"/>
 <quality
   epInt="1.0000000000000001e-05"
   epRHS="9.9999999999999995e-07"
   maxIntInfeas="0"
   maxPrimalInfeas="0"
   maxX="13"
   maxSlack="26"/>
 <variables>
  <variable name="x_0_9_0" index="36" value="1"/>
  <variable name="x_3_0_0" index="43" value="1"/>
  <variable name="x_0_2_1" index="55" value="1"/>
  <variable name="x_5_0_1" index="71" value="1"/>
  <variable name="x_2_5_1" index="152" value="1"/>
  <variable name="x_11_3_0" index="189" value="1"/>
  <variable name="x_7_11_0" index="311" value="1"/>
  <variable name="x_9_7_0" index="315" value="1"/>
  <variable name="y_0_1" index="392" value="1"/>
  <variable name="y_1_1" index="394" value="1"/>
  <variable name="y_2_0" index="397" value="1"/>
  <variable name="y_3_0" index="399" value="1"/>
  <variable name="u_1_0" index="400" value="1"/>
  <variable name="u_2_0" index="401" value="1"/>
  <variable name="u_1_1" index="402" value="1"/>
  <variable name="u_2_1" index="403" value="1"/>
  <variable name="u_3_0" index="404" value="13"/>
  <variable name="u_3_1" index="405" value="1"/>
  <variable name="u_4_0" index="406" value="1"/>
  <variable name="u_4_1" index="407" value="1"/>
  <variable name="u_5_0" index="408" value="1"/>
  <variable name="u_5_1" index="409" value="2"/>
  <variable name="u_6_0" index="410" value="1"/>
  <variable name="u_6_1" index="411" value="1"/>
  <variable name="u_7_0" index="412" value="11"/>
  <variable name="u_7_1" index="413" value="1"/>
  <variable name="u_8_0" index="414" value="13"/>
  <variable name="u_8_1" index="415" value="1"/>
  <variable name="u_9_0" index="416" value="1"/>
  <variable name="u_9_1" index="417" value="1"/>
  <variable name="u_10_0" index="418" value="1"/>
  <variable name="u_10_1" index="419" value="1"/>
  <variable name="u_11_0" index="420" value="12"/>
  <variable name="u_11_1" index="421" value="1"/>
  <variable name="u_12_0" index="422" value="1"/>
  <variable name="u_12_1" index="423" value="13"/>
  <variable name="u_13_0" index="424" value="1"/>
  <variable name="u_13_1" index="425" value="1"/>
 </variables>
 <objectiveValues>
  <objective index="0" name="" value="46"/>
 </objectiveValues>
</CPLEXSolution>
